{"lblp_lower": [557.8702473468168, 653.8707791278298, 702.3462572056744, 738.026403137192, 753.0458260041044, 757.4794124958569, 759.0889410018932, 759.1210405345214], "cuttingPlaneBendInfo": [{"tot_cut_value": 0, "TOT_gen_cut": 0, "tot_time_opt": 0, "max_time_opt": 0}, {"tot_cut_value": 0, "TOT_gen_cut": 0, "tot_time_opt": 0, "max_time_opt": 0}, {"tot_cut_value": 0, "TOT_gen_cut": 0, "tot_time_opt": 0, "max_time_opt": 0}, {"tot_cut_value": 0, "TOT_gen_cut": 0, "tot_time_opt": 0, "max_time_opt": 0}, {"tot_cut_value": 0, "TOT_gen_cut": 0, "tot_time_opt": 0, "max_time_opt": 0}, {"tot_cut_value": 0, "TOT_gen_cut": 0, "tot_time_opt": 0, "max_time_opt": 0}, {"tot_cut_value": 0, "TOT_gen_cut": 0, "tot_time_opt": 0, "max_time_opt": 0}, {"tot_cut_value": 0, "TOT_gen_cut": 0, "tot_time_opt": 0, "max_time_opt": 0}], "time_compress": [0, 0, 0, 0, 0, 0, 0, 0], "ub_lp": [915.0000000000001, 834.4000000000003, 804.2185579937302, 769.7070004248895, 760.7222199882718, 759.8258326124567, 759.2356062627338, 759.1888425858823], "prob_sizes_at_start": [{"timeGraph": 52, "ngGraph": 52}, {"timeGraph": 175, "ngGraph": 77}, {"timeGraph": 205, "ngGraph": 129}, {"timeGraph": 293, "ngGraph": 189}, {"timeGraph": 360, "ngGraph": 238}, {"timeGraph": 401, "ngGraph": 230}, {"timeGraph": 408, "ngGraph": 233}, {"timeGraph": 396, "ngGraph": 229}], "prob_sizes_after_compress": [{"timeGraph": 3, "ngGraph": 45}, {"timeGraph": 90, "ngGraph": 36}, {"timeGraph": 124, "ngGraph": 50}, {"timeGraph": 170, "ngGraph": 62}, {"timeGraph": 224, "ngGraph": 53}, {"timeGraph": 253, "ngGraph": 46}, {"timeGraph": 217, "ngGraph": 52}, {"timeGraph": 225, "ngGraph": 53}], "prob_sizes_after_split": [{"timeGraph": 175, "ngGraph": 77}, {"timeGraph": 205, "ngGraph": 129}, {"timeGraph": 293, "ngGraph": 189}, {"timeGraph": 360, "ngGraph": 238}, {"timeGraph": 401, "ngGraph": 230}, {"timeGraph": 408, "ngGraph": 233}, {"timeGraph": 396, "ngGraph": 229}, {"timeGraph": 233, "ngGraph": 106}], "did_compress": [true, true, true, true, true, true, true, true], "lp_time_project": [1.491264820098877, 0.1995389461517334, 0.6063449382781982, 0.840723991394043, 0.6854052543640137, 0.5563697814941406, 0.5862419605255127, 0.4490978717803955], "lp_time_LB": [0.12888813018798828, 0.19974803924560547, 0.3242979049682617, 0.7597198486328125, 0.8086211681365967, 0.6195888519287109, 0.4934546947479248, 0.4593009948730469], "ilp_time": [], "history_of_graphs_by_iter": [], "ROOT_LP_PRIOR_ADDING_CUTS": 759.1210405345214, "OUR_ilp_objective": 786.8000000000001, "OUR_MIP_Lower_Bound": 786.8000000000001, "OUR_ilp_time": 7.569427967071533, "OUR_gurobi_MILP_str": "Gurobi Optimizer version 12.0.1 build v12.0.1rc0 (mac64[arm] - Darwin 24.5.0 24F74)\n\nCPU model: Apple M1\nThread count: 8 physical cores, 8 logical processors, using up to 8 threads\n\nNon-default parameters:\nTimeLimit  3000\n\nWLS license 2690165 - registered to Optym\nOptimize a model with 8248 rows, 8933 columns and 39881 nonzeros\nModel fingerprint: 0xc891b1b0\nVariable types: 102 continuous, 8831 integer (3314 binary)\nCoefficient statistics:\n  Matrix range     [2e-01, 1e+02]\n  Objective range  [4e+00, 8e+01]\n  Bounds range     [1e-01, 2e+02]\n  RHS range        [1e+00, 1e+02]\nUsing branch priorities.\nPresolve removed 5426 rows and 3715 columns\nPresolve time: 0.04s\nPresolved: 2822 rows, 5218 columns, 20980 nonzeros\nVariable types: 100 continuous, 5118 integer (4869 binary)\nFound heuristic solution: objective 2105.9000000\n\nRoot relaxation: objective 7.591210e+02, 3581 iterations, 0.15 seconds (0.23 work units)\n\n    Nodes    |    Current Node    |     Objective Bounds      |     Work\n Expl Unexpl |  Obj  Depth IntInf | Incumbent    BestBd   Gap | It/Node Time\n\n     0     0  759.12104    0  334 2105.90000  759.12104  64.0%     -    0s\nH    0     0                    1606.9000000  759.12104  52.8%     -    0s\nH    0     0                    1051.7000000  759.12104  27.8%     -    0s\nH    0     0                     920.1000000  759.12104  17.5%     -    0s\nH    0     0                     844.6000000  759.12104  10.1%     -    0s\nH    0     0                     826.4000000  759.12104  8.14%     -    0s\n     0     0  763.41008    0  373  826.40000  763.41008  7.62%     -    0s\n     0     0  763.42730    0  373  826.40000  763.42730  7.62%     -    0s\n     0     0  765.73831    0  360  826.40000  765.73831  7.34%     -    0s\n     0     0  765.78255    0  360  826.40000  765.78255  7.34%     -    0s\nH    0     0                     800.2000000  765.78255  4.30%     -    1s\n     0     0  767.44135    0  414  800.20000  767.44135  4.09%     -    1s\n     0     0  767.52054    0  410  800.20000  767.52054  4.08%     -    1s\n     0     0  768.79733    0  410  800.20000  768.79733  3.92%     -    1s\n     0     0  768.98630    0  469  800.20000  768.98630  3.90%     -    1s\n     0     0  769.07883    0  476  800.20000  769.07883  3.89%     -    1s\n     0     0  769.07883    0  476  800.20000  769.07883  3.89%     -    1s\n     0     0  769.44079    0  461  800.20000  769.44079  3.84%     -    1s\n     0     0  769.46050    0  477  800.20000  769.46050  3.84%     -    1s\n     0     0  769.46050    0  477  800.20000  769.46050  3.84%     -    1s\n     0     0  769.60358    0  459  800.20000  769.60358  3.82%     -    1s\n     0     0  769.61321    0  466  800.20000  769.61321  3.82%     -    1s\n     0     0  769.75104    0  462  800.20000  769.75104  3.81%     -    1s\n     0     0  769.82578    0  471  800.20000  769.82578  3.80%     -    1s\n     0     0  769.83678    0  472  800.20000  769.83678  3.79%     -    1s\n     0     0  769.83729    0  480  800.20000  769.83729  3.79%     -    1s\n     0     0  769.99473    0  468  800.20000  769.99473  3.77%     -    1s\n     0     0  770.03797    0  491  800.20000  770.03797  3.77%     -    1s\n     0     0  770.04594    0  500  800.20000  770.04594  3.77%     -    1s\n     0     0  770.04611    0  501  800.20000  770.04611  3.77%     -    1s\n     0     0  770.14562    0  512  800.20000  770.14562  3.76%     -    1s\n     0     0  770.15207    0  517  800.20000  770.15207  3.76%     -    1s\n     0     0  770.15278    0  520  800.20000  770.15278  3.75%     -    1s\n     0     0  770.29604    0  506  800.20000  770.29604  3.74%     -    2s\n     0     0  770.31241    0  509  800.20000  770.31241  3.74%     -    2s\n     0     0  770.31316    0  514  800.20000  770.31316  3.73%     -    2s\n     0     0  770.48889    0  514  800.20000  770.48889  3.71%     -    2s\n     0     0  770.51091    0  519  800.20000  770.51091  3.71%     -    2s\n     0     0  770.51091    0  519  800.20000  770.51091  3.71%     -    2s\nH    0     0                     799.7000000  770.56687  3.64%     -    2s\nH    0     0                     787.7000000  770.56687  2.18%     -    2s\n     0     0  770.56687    0  513  787.70000  770.56687  2.18%     -    2s\n     0     0  770.57424    0  525  787.70000  770.57424  2.17%     -    2s\n     0     0  770.57424    0  526  787.70000  770.57424  2.17%     -    2s\n     0     0  770.57424    0  333  787.70000  770.57424  2.17%     -    2s\n     0     0  770.57424    0  381  787.70000  770.57424  2.17%     -    2s\n     0     0  770.57424    0  389  787.70000  770.57424  2.17%     -    2s\n     0     0  770.57424    0  382  787.70000  770.57424  2.17%     -    2s\n     0     0  770.57424    0  424  787.70000  770.57424  2.17%     -    2s\n     0     0  770.57424    0  430  787.70000  770.57424  2.17%     -    2s\n     0     0  770.57424    0  430  787.70000  770.57424  2.17%     -    2s\n     0     0  770.90489    0  468  787.70000  770.90489  2.13%     -    3s\n     0     0  770.92827    0  466  787.70000  770.92827  2.13%     -    3s\n     0     0  771.70513    0  487  787.70000  771.70513  2.03%     -    3s\n     0     0  771.71376    0  491  787.70000  771.71376  2.03%     -    3s\n     0     0  771.71378    0  491  787.70000  771.71378  2.03%     -    3s\n     0     0  771.78467    0  497  787.70000  771.78467  2.02%     -    3s\n     0     0  771.79384    0  500  787.70000  771.79384  2.02%     -    3s\n     0     0  771.79413    0  498  787.70000  771.79413  2.02%     -    3s\n     0     0  771.79599    0  501  787.70000  771.79599  2.02%     -    3s\n     0     0  771.79599    0  501  787.70000  771.79599  2.02%     -    3s\n     0     0  771.81186    0  496  787.70000  771.81186  2.02%     -    3s\n     0     2  771.82119    0  496  787.70000  771.82119  2.02%     -    3s\nH   58    46                     787.6000000  773.12853  1.84%   172    3s\nH   92    71                     786.8000000  774.04183  1.62%   157    4s\n   386   202  783.18647   10  171  786.80000  775.01530  1.50%   115    5s\n\nCutting planes:\n  Gomory: 2\n  Cover: 3\n  Implied bound: 140\n  Clique: 2\n  MIR: 76\n  Inf proof: 3\n  Zero half: 89\n  RLT: 20\n  Relax-and-lift: 60\n  BQP: 7\n  PSD: 26\n\nExplored 1840 nodes (163475 simplex iterations) in 7.57 seconds (10.11 work units)\nThread count was 8 (of 8 available processors)\n\nSolution count 10: 786.8 787.6 787.7 ... 1606.9\n\nOptimal solution found (tolerance 1.00e-04)\nBest objective 7.868000000000e+02, best bound 7.868000000000e+02, gap 0.0000%\n", "jy_opt": {"ParetoEps": 1e-05, "turn_off_time_windows": false, "deactivate_time_graph": false, "deactivate_demand_graph": false, "epsilon": 0.0001, "weight_slack_projector": 1e-05, "weight_compress": 0.01, "num_cust_use": 50, "dem_step_sz": 1, "time_step_sz": 1, "use_compression": 1, "max_iterations_loop_compress_project": 50, "do_round_dist_times": 1, "my_shift_bet_time_win": 0.0001, "num_terms_per_bin_init_construct": 100, "allOneBig_init": 0, "min_inc_2_compress": 1e-05, "save_graph_each_iter": 0, "use_Xpress": 0, "use_ineq": false, "xpress_file_loc": "/Users/julian/Documents/FICO_Xpress_Config/xpauth.xpr", "run_baseline": 0, "verbose": 0, "use_NG_graph": 1, "num_NG": 9, "in_demo_mode": 0, "threshold_split": 0.1, "offset_cost_edge_project": 0, "use_classic_compress": 1, "use_classic_compress_last": 1, "num_thresh_split_projector": 1000, "lplb_solver": 4, "compresss_solver": 0, "proj_solver": 4, "use_julians_custom_lp_solver": 0, "do_ilp": 1, "roundingDiscretization_num_digits_keep": 3, "doExrtraRemovalEdgesLB": 0, "use_gurobi": 1, "max_ILP_time": 3000, "use_fancy_ng_graph": 1, "use_dem_graph": 0, "use_time_graph": 1, "num_multiplys_demand": 0, "DEBUG_ALLOW_DUMB_EDGES": 0, "add_all_ng_split_at_end": 0, "do_split_based_init": 0, "think_compress": [0], "use_delta_in_milp": 1, "use_delta_in_lp": 1, "turn_off_non_active_fg_project": 0, "use_new_valid_ineq": 0, "digit_mult_use": 10, "use_branch_on_g": true, "LAB_MP_ON": 0, "LAB_MP_neigh_use_power": 9, "LAB_MP_num_ineq_use": 10, "do_remove_actions_from_incumbant": true, "ub_use_remove": 786.8, "use_packing_in_construction": 1, "maxVarsAdd_in_ITER": 10, "use_ng_size_init": 0, "do_presolve": 0, "use_diving_ineq": 1, "BEND_MIN_LP_OBJECTIVE_CUT": 0.1, "BEND_USE_RAND": 0, "BEND_MAX_SIZE_CHOOSE_K": 230, "BEND_VAL_STOP_ADDING_CUTS": 100000000, "BEND_MY_SIZES_USE": [9], "NUMERICAL_BEND_OFFSET_COST_CUT": 0.0001, "NUMERICAL_BEND_EPSILON_MULT_PARETO_OBJ": 0.001, "NO_PARETO_NUMERICAL_BEND_OFFSET_COST_CUT": 0, "NO_PARETO_BEND_VAL_STOP_ADDING_CUTS": 1, "NO_PARETO_EPSILON_MAX_VAL_CON": 0.01, "BENDERS_NEIGH_SZ_USE": 9, "Actions_of_given_sol": [], "all_vars_binary": 1, "restore_after_each_step": 1, "use_ng": 1, "compress_solver": 1, "DEBUG_NG_turn_off_CLEAN": false, "max_nodes_split": Infinity}, "output_ilp_solution": {"delta_capRem_0": 1.0, "delta_timeRem_0": 32.0, "delta_capRem_1": 20.0, "delta_timeRem_1": 208.0, "delta_capRem_2": 2.6, "delta_timeRem_2": 93.2, "delta_capRem_3": 1.9, "delta_timeRem_3": 46.0, "delta_capRem_4": 6.6, "delta_timeRem_4": 178.9, "delta_capRem_5": 0.3, "delta_timeRem_5": 99.0, "delta_capRem_6": 20.0, "delta_timeRem_6": 169.0, "delta_capRem_7": 2.4, "delta_timeRem_7": 140.5, "delta_capRem_8": 4.1, "delta_timeRem_8": 122.5, "delta_capRem_9": 5.8, "delta_timeRem_9": 114.9, "delta_capRem_10": 19.5, "delta_timeRem_10": 144.0, "delta_capRem_11": 18.4, "delta_timeRem_11": 192.0, "delta_capRem_12": 2.3, "delta_timeRem_12": 34.0, "delta_capRem_13": 5.8, "delta_timeRem_13": 116.0, "delta_capRem_14": 19.3, "delta_timeRem_14": 185.0, "delta_capRem_15": 11.1, "delta_timeRem_15": 173.9, "delta_capRem_16": 5.7, "delta_timeRem_16": 41.0, "delta_capRem_17": 1.5, "delta_timeRem_17": 120.1, "delta_capRem_18": 17.3, "delta_timeRem_18": 177.1, "delta_capRem_19": 1.9, "delta_timeRem_19": 74.0, "delta_capRem_20": 20.0, "delta_timeRem_20": 193.0, "delta_capRem_21": 4.4, "delta_timeRem_21": 141.8, "delta_capRem_22": 18.9, "delta_timeRem_22": 165.0, "delta_capRem_23": 0.3, "delta_timeRem_23": 40.0, "delta_capRem_24": 2.5, "delta_timeRem_24": 100.6, "delta_capRem_25": 1.7, "delta_timeRem_25": 69.0, "delta_capRem_26": 20.0, "delta_timeRem_26": 222.0, "delta_capRem_27": 20.0, "delta_timeRem_27": 219.0, "delta_capRem_28": 16.5, "delta_timeRem_28": 166.4, "delta_capRem_29": 7.3, "delta_timeRem_29": 165.9, "delta_capRem_30": 20.0, "delta_timeRem_30": 206.0, "delta_capRem_31": 4.2, "delta_timeRem_31": 94.7, "delta_capRem_32": 5.2, "delta_timeRem_32": 140.7, "delta_capRem_33": 1.7, "delta_timeRem_33": 83.0, "delta_capRem_34": 2.5, "delta_timeRem_34": 103.1, "delta_capRem_35": 9.9, "delta_timeRem_35": 118.1, "delta_capRem_36": 3.1, "delta_timeRem_36": 66.0, "delta_capRem_37": 7.4, "delta_timeRem_37": 137.1, "delta_capRem_38": 5.6, "delta_timeRem_38": 120.0, "delta_capRem_39": 2.6, "delta_timeRem_39": 116.0, "delta_capRem_40": 4.9, "delta_timeRem_40": 156.0, "delta_capRem_41": 20.0, "delta_timeRem_41": 204.6, "delta_capRem_42": 3.8, "delta_timeRem_42": 95.4, "delta_capRem_43": 9.2, "delta_timeRem_43": 157.9, "delta_capRem_44": 4.0, "delta_timeRem_44": 156.9, "delta_capRem_45": 9.4, "delta_timeRem_45": 96.1, "delta_capRem_46": 15.6, "delta_timeRem_46": 159.1, "delta_capRem_47": 9.3, "delta_timeRem_47": 74.4, "delta_capRem_48": 12.9, "delta_timeRem_48": 137.0, "delta_capRem_49": 1.3, "delta_timeRem_49": 75.0, "act_0_51": 1, "act_1_14": 1, "act_2_49": 1, "act_3_51": 1, "act_4_44": 1, "act_5_51": 1, "act_6_10": 1, "act_7_17": 1, "act_8_34": 1, "act_9_31": 1, "act_10_9": 1, "act_11_28": 1, "act_12_51": 1, "act_13_42": 1, "act_14_40": 1, "act_15_43": 1, "act_16_51": 1, "act_17_5": 1, "act_18_46": 1, "act_19_0": 1, "act_20_22": 1, "act_21_39": 1, "act_22_38": 1, "act_23_51": 1, "act_24_3": 1, "act_25_51": 1, "act_26_29": 1, "act_27_11": 1, "act_28_2": 1, "act_29_32": 1, "act_30_18": 1, "act_31_19": 1, "act_32_8": 1, "act_33_23": 1, "act_34_33": 1, "act_35_45": 1, "act_36_12": 1, "act_37_13": 1, "act_38_24": 1, "act_39_25": 1, "act_40_21": 1, "act_41_15": 1, "act_42_36": 1, "act_43_37": 1, "act_44_7": 1, "act_45_47": 1, "act_46_48": 1, "act_47_16": 1, "act_48_35": 1, "act_49_51": 1, "act_50_1": 1, "act_50_4": 1, "act_50_6": 1, "act_50_20": 1, "act_50_26": 1, "act_50_27": 1, "act_50_30": 1, "act_50_41": 1}, "Actions_of_given_sol": "none just used source and sink terms", "actions_used": ["act_0_51", "act_1_14", "act_2_49", "act_3_51", "act_4_44", "act_5_51", "act_6_10", "act_7_17", "act_8_34", "act_9_31", "act_10_9", "act_11_28", "act_12_51", "act_13_42", "act_14_40", "act_15_43", "act_16_51", "act_17_5", "act_18_46", "act_19_0", "act_20_22", "act_21_39", "act_22_38", "act_23_51", "act_24_3", "act_25_51", "act_26_29", "act_27_11", "act_28_2", "act_29_32", "act_30_18", "act_31_19", "act_32_8", "act_33_23", "act_34_33", "act_35_45", "act_36_12", "act_37_13", "act_38_24", "act_39_25", "act_40_21", "act_41_15", "act_42_36", "act_43_37", "act_44_7", "act_45_47", "act_46_48", "act_47_16", "act_48_35", "act_49_51", "act_50_1", "act_50_4", "act_50_6", "act_50_20", "act_50_26", "act_50_27", "act_50_30", "act_50_41"], "init_default_solution_is_empty": false, "objective_of_initial_sol": 2620.8000000000006, "my_paths": "[[50, 1, 14, 40, 21, 39, 25, 51], [50, 4, 44, 7, 17, 5, 51], [50, 6, 10, 9, 31, 19, 0, 51], [50, 20, 22, 38, 24, 3, 51], [50, 26, 29, 32, 8, 34, 33, 23, 51], [50, 27, 11, 28, 2, 49, 51], [50, 30, 18, 46, 48, 35, 45, 47, 16, 51], [50, 41, 15, 43, 37, 13, 42, 36, 12, 51]]"}